param size := 9;

param nsubsets := 3;

set ROWSUBS[1] := 1 2 3;
set ROWSUBS[2] := 4 5 6;
set ROWSUBS[3] := 7 8 9;

set COLSUBS[1] := 1 2 3;
set COLSUBS[2] := 4 5 6;
set COLSUBS[3] := 7 8 9;

set KNOWN :=
8 1 3
1 1 7
1 2 2
2 2 5
8 2 8
5 3 1
3 3 4
4 3 7
3 4 1
8 4 6
4 5 2
6 5 3
5 5 7
2 5 8
7 6 4
1 6 9
7 7 3
3 7 6
6 7 9
8 8 2
1 8 5
3 8 8
2 9 3
7 9 7;
